\ This file has been generated by DOcplex
\ ENCODING=ISO-8859-1
\Problem name: random_problem.lp

Minimize
 obj: - 4 x0 - 2 x1 - x2 - 208 x3 - 104 x4 - 52 x5 - 488 x6 - 244 x7 - 122 x8
      - 948 x9 - 474 x10 - 237 x11 + [ 17024 x0^2 + 17024 x0*x1 + 8512 x0*x2
      - 4096 x0*x3 - 2048 x0*x4 - 1024 x0*x5 + 2944 x0*x6 + 1472 x0*x7
      + 736 x0*x8 + 8704 x0*x9 + 4352 x0*x10 + 2176 x0*x11 + 4256 x1^2
      + 4256 x1*x2 - 2048 x1*x3 - 1024 x1*x4 - 512 x1*x5 + 1472 x1*x6
      + 736 x1*x7 + 368 x1*x8 + 4352 x1*x9 + 2176 x1*x10 + 1088 x1*x11
      + 1064 x2^2 - 1024 x2*x3 - 512 x2*x4 - 256 x2*x5 + 736 x2*x6 + 368 x2*x7
      + 184 x2*x8 + 2176 x2*x9 + 1088 x2*x10 + 544 x2*x11 + 20864 x3^2
      + 20864 x3*x4 + 10432 x3*x5 + 12800 x3*x6 + 6400 x3*x7 + 3200 x3*x8
      + 18304 x3*x9 + 9152 x3*x10 + 4576 x3*x11 + 5216 x4^2 + 5216 x4*x5
      + 6400 x4*x6 + 3200 x4*x7 + 1600 x4*x8 + 9152 x4*x9 + 4576 x4*x10
      + 2288 x4*x11 + 1304 x5^2 + 3200 x5*x6 + 1600 x5*x7 + 800 x5*x8
      + 4576 x5*x9 + 2288 x5*x10 + 1144 x5*x11 + 5888 x6^2 + 5888 x6*x7
      + 2944 x6*x8 + 10496 x6*x9 + 5248 x6*x10 + 2624 x6*x11 + 1472 x7^2
      + 1472 x7*x8 + 5248 x7*x9 + 2624 x7*x10 + 1312 x7*x11 + 368 x8^2
      + 2624 x8*x9 + 1312 x8*x10 + 656 x8*x11 + 8768 x9^2 + 8768 x9*x10
      + 4384 x9*x11 + 2192 x10^2 + 2192 x10*x11 + 548 x11^2 ]/2
Subject To
 c0: 4 x0 + 2 x1 + x2 + 4 x3 + 2 x4 + x5 + 4 x6 + 2 x7 + x8 + 4 x9 + 2 x10 + x11
      = 7

Bounds
 0 <= x0 <= 1
 0 <= x1 <= 1
 0 <= x2 <= 1
 0 <= x3 <= 1
 0 <= x4 <= 1
 0 <= x5 <= 1
 0 <= x6 <= 1
 0 <= x7 <= 1
 0 <= x8 <= 1
 0 <= x9 <= 1
 0 <= x10 <= 1
 0 <= x11 <= 1

Binaries
 x0 x1 x2 x3 x4 x5 x6 x7 x8 x9 x10 x11
End
